;; sequence(s): A85789
;; terms: 3 18 54 120 225 378 588 864 1215 1650 2178 2808 3549 4410 5400 6528 7803 9234 10830 12600
;; small program: loop2(loop(x + y, y, 0) * x, x, 2, 1 + x, 2)
;; fast program: (1 + 2) * ((1 + x) * (((1 + x) * (2 + x)) div 2))
(set-logic UFNIA)
(define-fun divf ((a Int) (b Int)) Int (ite (< 0 b) (div a b) (div (- a) (- b))))
(declare-fun f1 (Int Int) Int)
(declare-fun g1 (Int Int) Int)
(declare-fun h1 () Int)
(declare-fun u1 (Int Int) Int)
(declare-fun v1 (Int Int) Int)
(declare-fun f0 (Int Int) Int)
(declare-fun g0 (Int) Int)
(declare-fun h0 () Int)
(declare-fun i0 (Int) Int)
(declare-fun j0 () Int)
(declare-fun u0 (Int Int Int) Int)
(declare-fun v0 (Int Int Int) Int)
(declare-fun w0 (Int) Int)
(declare-fun small (Int) Int)
(declare-fun fast (Int) Int)
(assert (forall ((x Int) (y Int)) (= (f1 x y) (+ x y))))
(assert (forall ((x Int) (y Int)) (= (g1 x y) y)))
(assert (= h1 0))
(assert (forall ((x Int) (y Int)) (= (u1 x y) (ite (<= x 0) y (f1 (u1 (- x 1) y) x)))))
(assert (forall ((x Int) (y Int)) (= (v1 x y) (u1 (g1 x y) h1))))
(assert (forall ((x Int) (y Int)) (= (f0 x y) (* (v1 x y) x))))
(assert (forall ((x Int)) (= (g0 x) x)))
(assert (= h0 2))
(assert (forall ((x Int)) (= (i0 x) (+ 1 x))))
(assert (= j0 2))
(assert (forall ((x Int) (y Int) (z Int)) (= (u0 x y z) (ite (<= x 0) y (f0 (u0 (- x 1) y z) (v0 (- x 1) y z))))))
(assert (forall ((x Int) (y Int) (z Int)) (= (v0 x y z) (ite (<= x 0) z (g0 (u0 (- x 1) y z))))))
(assert (forall ((x Int)) (= (w0 x) (u0 h0 (i0 x) j0))))
(assert (forall ((x Int)) (= (small x) (w0 x))))
(assert (forall ((x Int)) (= (fast x) (* (+ 1 2) (* (+ 1 x) (divf (* (+ 1 x) (+ 2 x)) 2))))))
(assert (exists ((c Int)) (and (>= c 0) (not (= (small c) (fast c))))))
(check-sat)
